
Gurobi 12.0.2 (win64) logging started Wed Jun  4 16:57:29 2025

Set parameter LogFile to value "C:\Ioana\_uni\honours\slp\algorithm\Main_files\results\others\fatty_acids\Task_009_Sample004_irr_gurobi.log"
Gurobi Optimizer version 12.0.2 build v12.0.2rc0 (win64 - Windows 11.0 (26100.2))

CPU model: Intel(R) Core(TM) Ultra 5 125H, instruction set [SSE2|AVX|AVX2]
Thread count: 14 physical cores, 18 logical processors, using up to 18 threads

Non-default parameters:
TimeLimit  2200

Optimize a model with 47226 rows, 34496 columns and 146683 nonzeros
Model fingerprint: 0x7fa2951b
Variable types: 17251 continuous, 17245 integer (17245 binary)
Coefficient statistics:
  Matrix range     [1e-04, 8e+04]
  Objective range  [4e-05, 1e+01]
  Bounds range     [1e+00, 1e+03]
  RHS range        [1e+00, 1e+00]
Presolve removed 30826 rows and 21544 columns
Presolve time: 0.52s
Presolved: 16400 rows, 12952 columns, 54572 nonzeros
Variable types: 6410 continuous, 6542 integer (6542 binary)
Found heuristic solution: objective 18.3236310

Root relaxation: objective 7.057572e-01, 0 iterations, 0.02 seconds (0.00 work units)

    Nodes    |    Current Node    |     Objective Bounds      |     Work
 Expl Unexpl |  Obj  Depth IntInf | Incumbent    BestBd   Gap | It/Node Time

*    0     0               0       0.7057572    0.70576  0.00%     -    0s

Explored 1 nodes (0 simplex iterations) in 0.69 seconds (0.45 work units)
Thread count was 18 (of 18 available processors)

Solution count 2: 0.705757 18.3236 

Optimal solution found (tolerance 1.00e-04)
Best objective 7.057571903737e-01, best bound 7.057571903737e-01, gap 0.0000%
